NAME: random-89-13378
TYPE: TSP
COMMENT: size=89 seed=13378
DIMENSION: 180
EDGE_WEIGHT_TYPE: EUC_2D
NODE_COORD_SECTION
+0 46 49
-0 46 49
+1 371 753
-1 669 477
+2 605 914
-2 210 14
+3 924 962
-3 481 492
+4 840 568
-4 57 918
+5 39 893
-5 289 137
+6 640 971
-6 612 128
+7 893 770
-7 500 416
+8 919 728
-8 171 297
+9 501 329
-9 936 449
+10 838 848
-10 5 542
+11 78 726
-11 34 153
+12 76 760
-12 40 857
+13 164 813
-13 22 351
+14 196 912
-14 879 264
+15 922 145
-15 340 676
+16 25 58
-16 986 413
+17 871 732
-17 38 885
+18 248 339
-18 328 881
+19 378 118
-19 661 841
+20 592 513
-20 598 508
+21 521 676
-21 387 224
+22 88 755
-22 71 735
+23 225 94
-23 427 849
+24 384 107
-24 70 53
+25 742 493
-25 464 889
+26 554 715
-26 8 92
+27 729 516
-27 542 848
+28 517 498
-28 757 836
+29 37 460
-29 937 368
+30 881 115
-30 652 350
+31 37 639
-31 805 117
+32 528 180
-32 774 189
+33 879 651
-33 759 996
+34 515 605
-34 453 714
+35 602 811
-35 284 839
+36 210 824
-36 561 283
+37 946 123
-37 487 565
+38 68 798
-38 922 848
+39 577 616
-39 638 907
+40 689 937
-40 738 867
+41 751 418
-41 25 379
+42 623 469
-42 943 276
+43 463 621
-43 382 131
+44 805 973
-44 875 89
+45 805 676
-45 982 181
+46 467 817
-46 611 657
+47 632 908
-47 744 8
+48 126 631
-48 433 451
+49 507 950
-49 243 752
+50 833 592
-50 922 792
+51 540 180
-51 315 820
+52 81 980
-52 429 44
+53 608 366
-53 273 27
+54 760 62
-54 124 265
+55 739 223
-55 4 144
+56 958 915
-56 368 890
+57 325 264
-57 415 498
+58 960 238
-58 862 197
+59 545 668
-59 673 87
+60 616 336
-60 852 491
+61 419 393
-61 726 886
+62 324 603
-62 503 47
+63 209 556
-63 35 486
+64 624 30
-64 703 9
+65 881 308
-65 594 869
+66 822 260
-66 992 448
+67 238 963
-67 987 78
+68 495 921
-68 619 713
+69 320 670
-69 703 922
+70 610 39
-70 210 275
+71 704 16
-71 969 648
+72 4 420
-72 595 592
+73 282 894
-73 91 173
+74 249 39
-74 73 624
+75 876 88
-75 608 670
+76 715 538
-76 568 922
+77 834 7
-77 543 688
+78 276 426
-78 14 160
+79 235 297
-79 560 416
+80 869 83
-80 32 529
+81 90 746
-81 695 517
+82 8 603
-82 728 50
+83 227 146
-83 522 964
+84 820 471
-84 808 754
+85 851 178
-85 865 79
+86 72 178
-86 539 709
+87 483 73
-87 768 83
+88 529 86
-88 353 887
+89 238 577
-89 400 552
PRECEDENCE_SECTION
+0 -0
+1 -1
+2 -2
+3 -3
+4 -4
+5 -5
+6 -6
+7 -7
+8 -8
+9 -9
+10 -10
+11 -11
+12 -12
+13 -13
+14 -14
+15 -15
+16 -16
+17 -17
+18 -18
+19 -19
+20 -20
+21 -21
+22 -22
+23 -23
+24 -24
+25 -25
+26 -26
+27 -27
+28 -28
+29 -29
+30 -30
+31 -31
+32 -32
+33 -33
+34 -34
+35 -35
+36 -36
+37 -37
+38 -38
+39 -39
+40 -40
+41 -41
+42 -42
+43 -43
+44 -44
+45 -45
+46 -46
+47 -47
+48 -48
+49 -49
+50 -50
+51 -51
+52 -52
+53 -53
+54 -54
+55 -55
+56 -56
+57 -57
+58 -58
+59 -59
+60 -60
+61 -61
+62 -62
+63 -63
+64 -64
+65 -65
+66 -66
+67 -67
+68 -68
+69 -69
+70 -70
+71 -71
+72 -72
+73 -73
+74 -74
+75 -75
+76 -76
+77 -77
+78 -78
+79 -79
+80 -80
+81 -81
+82 -82
+83 -83
+84 -84
+85 -85
+86 -86
+87 -87
+88 -88
+89 -89
EOF
